SECTION Comment
Auto Generated file.
Name "Inst_5"
Problem "Stochastic Traveling Salesman Problem"
Dimension: 6
Scenarios: 5
END

SECTION Graph
Nodes 6
Edges 15
Scenarios 5
Root 0
E 2 1 2529
E 3 1 0
E 3 2 982
E 4 1 4203
E 4 2 3080
E 4 3 0
E 5 1 4071
E 5 2 1758
E 5 3 0
E 5 4 0
E 6 1 4646
E 6 2 0
E 6 3 810
E 6 4 0
E 6 5 0
END

SECTION StochasticProbabilities
SP 0.1932439893931718 0.04655752991892714 0.4199009421184298 0.002022995074647737 0.3382745434948234
END

SECTION StochasticWeights
SE 0 0 0 0 0
SE 4454 4796 2736 693 746
SE 0 0 0 0 0
SE 0 0 0 0 0
SE 0 0 0 0 0
SE 1902 2839 379 269 2653
SE 0 0 0 0 0
SE 0 0 0 0 0
SE 4670 649 2844 2346 59
SE 1556 2642 828 3009 1314
SE 0 0 0 0 0
SE 2926 2748 4585 1429 3786
SE 0 0 0 0 0
SE 3446 3740 2252 419 1144
SE 761 4129 2691 4980 390
END

SECTION StochasticTerminals
ST 1 1 1 1 1 1
ST 2 1 1 1 1 1
ST 3 1 1 1 1 1
ST 4 1 1 1 1 1
ST 5 1 1 1 1 1
ST 6 1 1 1 1 1
END

EOF
